     Program PWSCF v.6.8 starts on  9Feb2022 at 12:22: 6

     K-points division:     npool     =       8

     Reading input from aiida.scf

     Current dimensions of program PWSCF are:
     Max number of different atomic species (ntypx) = 10
     Max number of k-points (npk) =  40000
     Max angular momentum in pseudopotentials (lmaxx) =  4

     Subspace diagonalization in iterative solution of the eigenvalue problem:
     a serial algorithm will be used

     Using Slab Decomposition

     bravais-lattice index     =            2
     lattice parameter (alat)  =      10.2000  a.u.
     unit-cell volume          =     265.3020 (a.u.)^3
     number of atoms/cell      =            2
     number of atomic types    =            1
     number of electrons       =         8.00
     number of Kohn-Sham states=            4
     kinetic-energy cutoff     =      45.0000  Ry
     charge density cutoff     =     180.0000  Ry
     scf convergence threshold =      1.0E-12
     mixing beta               =       0.7000
     number of iterations used =            8  plain     mixing
     Exchange-correlation= PBE
                           (   1   4   3   4   0   0   0)

     celldm(1)=  10.200000  celldm(2)=   0.000000  celldm(3)=   0.000000
     celldm(4)=   0.000000  celldm(5)=   0.000000  celldm(6)=   0.000000

     crystal axes: (cart. coord. in units of alat)
               a(1) = (  -0.500000   0.000000   0.500000 )
               a(2) = (   0.000000   0.500000   0.500000 )
               a(3) = (  -0.500000   0.500000   0.000000 )

     reciprocal axes: (cart. coord. in units 2 pi/alat)
               b(1) = ( -1.000000 -1.000000  1.000000 )
               b(2) = (  1.000000  1.000000  1.000000 )
               b(3) = ( -1.000000  1.000000 -1.000000 )

     PseudoPot. # 1 for Si read from file:
     ./pseudo/Si_ONCV_PBE-1.0.upf
     MD5 check sum: 89d4aa0247ed842b0114b5ec9b1e4a7e
     Pseudo is Norm-conserving, Zval =  4.0
     Generated using ONCVPSP code by D. R. Hamann
     Using radial grid of  602 points,  4 beta functions with:
                l(1) =   0
                l(2) =   0
                l(3) =   1
                l(4) =   1

     atomic species   valence    mass     pseudopotential
        Si             4.00    28.00000     Si( 1.00)

     48 Sym. Ops., with inversion, found (24 have fractional translation)

   Cartesian axes

     site n.     atom                  positions (alat units)
         1           Si  tau(   1) = (   0.2500000   0.2500000   0.2500000  )
         2           Si  tau(   2) = (   0.0000000   0.0000000   0.0000000  )

     number of k points=    47
                       cart. coord. in units 2pi/alat
        k(    1) = (   0.0000000   0.0000000   0.0000000), wk =   0.0020000
        k(    2) = (  -0.1000000   0.1000000  -0.1000000), wk =   0.0160000
        k(    3) = (  -0.2000000   0.2000000  -0.2000000), wk =   0.0160000
        k(    4) = (  -0.3000000   0.3000000  -0.3000000), wk =   0.0160000
        k(    5) = (  -0.4000000   0.4000000  -0.4000000), wk =   0.0160000
        k(    6) = (   0.5000000  -0.5000000   0.5000000), wk =   0.0080000
        k(    7) = (   0.0000000   0.2000000   0.0000000), wk =   0.0120000
        k(    8) = (  -0.1000000   0.3000000  -0.1000000), wk =   0.0480000
        k(    9) = (  -0.2000000   0.4000000  -0.2000000), wk =   0.0480000
        k(   10) = (  -0.3000000   0.5000000  -0.3000000), wk =   0.0480000
        k(   11) = (   0.6000000  -0.4000000   0.6000000), wk =   0.0480000
        k(   12) = (   0.5000000  -0.3000000   0.5000000), wk =   0.0480000
        k(   13) = (   0.4000000  -0.2000000   0.4000000), wk =   0.0480000
        k(   14) = (   0.3000000  -0.1000000   0.3000000), wk =   0.0480000
        k(   15) = (   0.2000000   0.0000000   0.2000000), wk =   0.0240000
        k(   16) = (   0.0000000   0.4000000   0.0000000), wk =   0.0120000
        k(   17) = (  -0.1000000   0.5000000  -0.1000000), wk =   0.0480000
        k(   18) = (  -0.2000000   0.6000000  -0.2000000), wk =   0.0480000
        k(   19) = (   0.7000000  -0.3000000   0.7000000), wk =   0.0480000
        k(   20) = (   0.6000000  -0.2000000   0.6000000), wk =   0.0480000
        k(   21) = (   0.5000000  -0.1000000   0.5000000), wk =   0.0480000
        k(   22) = (   0.4000000   0.0000000   0.4000000), wk =   0.0240000
        k(   23) = (   0.0000000   0.6000000   0.0000000), wk =   0.0120000
        k(   24) = (  -0.1000000   0.7000000  -0.1000000), wk =   0.0480000
        k(   25) = (   0.8000000  -0.2000000   0.8000000), wk =   0.0480000
        k(   26) = (   0.7000000  -0.1000000   0.7000000), wk =   0.0480000
        k(   27) = (   0.6000000  -0.0000000   0.6000000), wk =   0.0240000
        k(   28) = (   0.0000000   0.8000000   0.0000000), wk =   0.0120000
        k(   29) = (   0.9000000  -0.1000000   0.9000000), wk =   0.0480000
        k(   30) = (   0.8000000   0.0000000   0.8000000), wk =   0.0240000
        k(   31) = (   0.0000000  -1.0000000   0.0000000), wk =   0.0060000
        k(   32) = (  -0.2000000   0.4000000   0.0000000), wk =   0.0480000
        k(   33) = (  -0.3000000   0.5000000  -0.1000000), wk =   0.0960000
        k(   34) = (   0.6000000  -0.4000000   0.8000000), wk =   0.0960000
        k(   35) = (   0.5000000  -0.3000000   0.7000000), wk =   0.0480000
        k(   36) = (  -0.2000000   0.6000000   0.0000000), wk =   0.0480000
        k(   37) = (   0.7000000  -0.3000000   0.9000000), wk =   0.0960000
        k(   38) = (   0.6000000  -0.2000000   0.8000000), wk =   0.0960000
        k(   39) = (   0.5000000  -0.1000000   0.7000000), wk =   0.0960000
        k(   40) = (   0.4000000   0.0000000   0.6000000), wk =   0.0480000
        k(   41) = (   0.8000000  -0.2000000   1.0000000), wk =   0.0480000
        k(   42) = (   0.7000000  -0.1000000   0.9000000), wk =   0.0960000
        k(   43) = (   0.6000000   0.0000000   0.8000000), wk =   0.0480000
        k(   44) = (  -0.2000000  -1.0000000   0.0000000), wk =   0.0240000
        k(   45) = (   0.6000000  -0.2000000   1.0000000), wk =   0.0480000
        k(   46) = (   0.5000000  -0.1000000   0.9000000), wk =   0.0480000
        k(   47) = (  -0.4000000  -1.0000000   0.0000000), wk =   0.0240000

     Initial potential from superposition of free atoms

     starting charge    7.90755, renormalised to    8.00000
     Starting wfcs are random

     Self-consistent Calculation

     iteration #  1     ecut=    45.00 Ry     beta= 0.70
     CG style diagonalization
     ethr =  1.00E-02,  avg # of iterations =  7.2

     Threshold (ethr) on eigenvalues was too large:
     Diagonalizing with lowered threshold

     CG style diagonalization
     ethr =  6.87E-04,  avg # of iterations =  3.7

     total energy              =     -15.75947108 Ry
     estimated scf accuracy    <       0.05475071 Ry

[...]

          k = 0.0000 0.0000 0.0000     band energies (ev):

    -5.7180   6.3594   6.3601   6.3615

          k =-0.1000 0.1000-0.1000     band energies (ev):

[...]

     highest occupied level (ev):     6.3615

!    total energy              =     -15.76220223 Ry
     estimated scf accuracy    <       0.00245127 Ry

     The total energy is the sum of the following terms:
     one-electron contribution =       4.87700942 Ry
     hartree contribution      =       1.09618002 Ry
     xc contribution           =      -4.83924727 Ry
     ewald contribution        =     -16.89975859 Ry
     scf correction            =       0.00361418 Ry

[...]

     total energy              =     -15.76295226 Ry
     estimated scf accuracy    <          5.4E-12 Ry

[...]

          k = 0.5000-0.1000 0.9000     band energies (ev):

[...]

          k =-0.4000-1.0000 0.0000     band energies (ev):

[...]

     The total energy is the sum of the following terms:
     one-electron contribution =       4.88761859 Ry
     hartree contribution      =       1.08461625 Ry
     xc contribution           =      -4.83542885 Ry
     ewald contribution        =     -16.89975859 Ry
     scf correction            =       0.00000034 Ry

     iteration # 11     ecut=    45.00 Ry     beta= 0.70
     CG style diagonalization
     ethr =  1.00E-13,  avg # of iterations =  3.0

     End of self-consistent calculation

          k = 0.0000 0.0000 0.0000 (  1363 PWs)   bands (ev):

[...]

          k =-0.1000 0.1000-0.1000 (  1369 PWs)   bands (ev):

[...]

          k = 0.5000-0.1000 0.9000 (  1348 PWs)   bands (ev):

[...]

          k =-0.4000-1.0000 0.0000 (  1350 PWs)   bands (ev):

    -1.3046  -1.3046   2.5742   2.5742

     highest occupied level (ev):     6.4160

!    total energy              =     -15.76295226 Ry
     estimated scf accuracy    <          4.1E-15 Ry

     The total energy is the sum of the following terms:
     one-electron contribution =       4.88761886 Ry
     hartree contribution      =       1.08461638 Ry
     xc contribution           =      -4.83542891 Ry
     ewald contribution        =     -16.89975859 Ry

     convergence has been achieved in  11 iterations

     Forces acting on atoms (cartesian axes, Ry/au):

     atom    1 type  1   force =     0.00000000    0.00000000    0.00000000
     atom    2 type  1   force =     0.00000000    0.00000000    0.00000000

     Total force =     0.000000     Total SCF correction =     0.000000

     Writing output data file ./out/aiida.save/

     General routines

     Parallel routines

   This run was terminated on:  12:22: 7   9Feb2022

   JOB DONE.